30
7
5
1
26 106
25 81
26 44
105 102
108 74
108 39
26 106
25 81
26 44
105 102
108 74
108 39
17 104
22 112
33 111
29 112
25 118
18 79
21 67
27 70
25 73
38 81
95 102
103 105
110 110
96 110
126 95
105 75
93 66
94 71
106 68
118 69
115 38
113 29
106 31
99 33
100 36
34 40
32 42
31 45
20 37
18 39
EOF